0	85	125	57	25	77	27	41	105	108	65	
63	0	78	84	143	33	97	21	48	169	39	
38	69	0	57	186	175	128	113	114	47	174	
95	23	26	0	176	113	148	103	65	183	119	
140	33	169	34	0	134	34	103	30	120	133	
82	134	83	137	43	0	82	139	123	174	179	
100	115	69	59	189	155	0	23	51	79	114	
81	99	120	146	162	113	152	0	77	179	198	
107	125	190	53	197	30	116	49	0	175	132	
124	151	80	119	39	51	141	156	168	0	43	
200	196	198	48	139	142	31	63	185	50	0	
